p edge 1571 1536
e 1 2
e 1 3
e 1 4
e 1 5
e 1 6
e 1 7
e 1 8
e 1 9
e 1 10
e 1 11
e 1 12
e 1 13
e 1 14
e 1 15
e 1 16
e 1 17
e 1 18
e 1 19
e 1 20
e 1 21
e 1 22
e 1 23
e 1 24
e 1 25
e 1 26
e 1 27
e 1 28
e 1 29
e 1 30
e 1 31
e 1 32
e 1 33
e 1 34
e 1 35
e 36 37
e 36 38
e 36 39
e 36 40
e 36 41
e 36 42
e 36 43
e 36 44
e 36 45
e 36 46
e 47 48
e 47 49
e 47 50
e 47 51
e 47 52
e 47 53
e 47 54
e 47 55
e 47 56
e 47 57
e 47 58
e 47 59
e 47 60
e 47 61
e 47 62
e 47 63
e 47 64
e 47 65
e 47 66
e 47 67
e 47 68
e 47 69
e 47 70
e 47 71
e 47 72
e 47 73
e 47 74
e 47 75
e 47 76
e 77 78
e 77 79
e 77 80
e 77 81
e 77 82
e 77 83
e 77 84
e 77 85
e 77 86
e 77 87
e 77 88
e 77 89
e 77 90
e 77 91
e 77 92
e 77 93
e 77 94
e 77 95
e 96 97
e 96 98
e 96 99
e 96 100
e 96 101
e 96 102
e 96 103
e 96 104
e 96 105
e 96 106
e 96 107
e 96 108
e 96 109
e 96 110
e 96 111
e 96 112
e 96 113
e 96 114
e 96 115
e 96 116
e 96 117
e 96 118
e 96 119
e 96 120
e 96 121
e 96 122
e 96 123
e 96 124
e 96 125
e 96 126
e 96 127
e 96 128
e 96 129
e 96 130
e 96 131
e 96 132
e 133 134
e 133 135
e 133 136
e 133 137
e 133 138
e 133 139
e 133 140
e 133 141
e 133 142
e 133 143
e 133 144
e 133 145
e 133 146
e 133 147
e 133 148
e 133 149
e 133 150
e 133 151
e 133 152
e 133 153
e 133 154
e 133 155
e 133 156
e 133 157
e 133 158
e 133 159
e 133 160
e 133 161
e 162 163
e 162 164
e 162 165
e 162 166
e 162 167
e 162 168
e 162 169
e 162 170
e 162 171
e 162 172
e 162 173
e 162 174
e 162 175
e 162 176
e 162 177
e 162 178
e 162 179
e 162 180
e 162 181
e 162 182
e 162 183
e 162 184
e 162 185
e 162 186
e 162 187
e 162 188
e 162 189
e 162 190
e 162 191
e 162 192
e 162 193
e 162 194
e 162 195
e 162 196
e 162 197
e 162 198
e 162 199
e 162 200
e 162 201
e 162 202
e 162 203
e 162 204
e 162 205
e 162 206
e 162 207
e 162 208
e 162 209
e 162 210
e 162 211
e 162 212
e 162 213
e 162 214
e 215 216
e 215 217
e 215 218
e 215 219
e 215 220
e 215 221
e 215 222
e 215 223
e 215 224
e 215 225
e 215 226
e 215 227
e 215 228
e 215 229
e 215 230
e 215 231
e 215 232
e 215 233
e 215 234
e 215 235
e 215 236
e 215 237
e 215 238
e 215 239
e 215 240
e 215 241
e 215 242
e 215 243
e 215 244
e 215 245
e 215 246
e 247 248
e 247 249
e 247 250
e 247 251
e 247 252
e 247 253
e 247 254
e 247 255
e 247 256
e 247 257
e 247 258
e 247 259
e 247 260
e 247 261
e 247 262
e 247 263
e 247 264
e 247 265
e 247 266
e 247 267
e 247 268
e 247 269
e 247 270
e 247 271
e 247 272
e 247 273
e 247 274
e 247 275
e 247 276
e 247 277
e 247 278
e 247 279
e 247 280
e 247 281
e 247 282
e 247 283
e 247 284
e 247 285
e 247 286
e 247 287
e 247 288
e 247 289
e 247 290
e 247 291
e 247 292
e 247 293
e 247 294
e 247 295
e 247 296
e 247 297
e 247 298
e 247 299
e 247 300
e 247 301
e 247 302
e 247 303
e 247 304
e 247 305
e 247 306
e 247 307
e 247 308
e 247 309
e 247 310
e 247 311
e 247 312
e 247 313
e 247 314
e 247 315
e 247 316
e 247 317
e 247 318
e 247 319
e 247 320
e 247 321
e 247 322
e 247 323
e 247 324
e 247 325
e 247 326
e 327 328
e 327 329
e 327 330
e 327 331
e 327 332
e 327 333
e 327 334
e 327 335
e 327 336
e 327 337
e 327 338
e 327 339
e 327 340
e 327 341
e 327 342
e 327 343
e 327 344
e 327 345
e 327 346
e 327 347
e 327 348
e 327 349
e 327 350
e 327 351
e 327 352
e 327 353
e 327 354
e 327 355
e 327 356
e 327 357
e 327 358
e 327 359
e 327 360
e 327 361
e 327 362
e 327 363
e 327 364
e 327 365
e 327 366
e 327 367
e 327 368
e 327 369
e 327 370
e 327 371
e 327 372
e 327 373
e 327 374
e 327 375
e 327 376
e 327 377
e 327 378
e 327 379
e 327 380
e 327 381
e 327 382
e 327 383
e 327 384
e 327 385
e 327 386
e 327 387
e 327 388
e 327 389
e 327 390
e 327 391
e 327 392
e 327 393
e 327 394
e 327 395
e 327 396
e 327 397
e 327 398
e 327 399
e 327 400
e 327 401
e 327 402
e 327 403
e 404 405
e 404 406
e 404 407
e 404 408
e 404 409
e 404 410
e 404 411
e 404 412
e 404 413
e 404 414
e 404 415
e 404 416
e 404 417
e 404 418
e 404 419
e 404 420
e 404 421
e 404 422
e 404 423
e 404 424
e 404 425
e 404 426
e 404 427
e 404 428
e 404 429
e 404 430
e 404 431
e 404 432
e 404 433
e 404 434
e 404 435
e 404 436
e 404 437
e 404 438
e 404 439
e 440 441
e 440 442
e 440 443
e 440 444
e 440 445
e 440 446
e 440 447
e 440 448
e 440 449
e 440 450
e 440 451
e 440 452
e 440 453
e 440 454
e 440 455
e 440 456
e 440 457
e 440 458
e 440 459
e 440 460
e 440 461
e 440 462
e 440 463
e 440 464
e 440 465
e 440 466
e 440 467
e 440 468
e 440 469
e 440 470
e 440 471
e 440 472
e 440 473
e 440 474
e 440 475
e 440 476
e 440 477
e 440 478
e 440 479
e 440 480
e 440 481
e 440 482
e 440 483
e 440 484
e 440 485
e 440 486
e 440 487
e 440 488
e 440 489
e 440 490
e 440 491
e 440 492
e 440 493
e 440 494
e 440 495
e 440 496
e 440 497
e 440 498
e 440 499
e 440 500
e 440 501
e 440 502
e 440 503
e 440 504
e 440 505
e 440 506
e 440 507
e 440 508
e 440 509
e 440 510
e 440 511
e 512 513
e 512 514
e 512 515
e 512 516
e 512 517
e 512 518
e 512 519
e 512 520
e 512 521
e 512 522
e 512 523
e 512 524
e 512 525
e 512 526
e 512 527
e 512 528
e 512 529
e 512 530
e 512 531
e 512 532
e 512 533
e 512 534
e 512 535
e 512 536
e 512 537
e 512 538
e 512 539
e 512 540
e 512 541
e 512 542
e 512 543
e 512 544
e 512 545
e 512 546
e 512 547
e 512 548
e 512 549
e 512 550
e 512 551
e 512 552
e 512 553
e 512 554
e 512 555
e 512 556
e 512 557
e 512 558
e 512 559
e 512 560
e 512 561
e 512 562
e 512 563
e 512 564
e 512 565
e 512 566
e 512 567
e 512 568
e 512 569
e 512 570
e 512 571
e 512 572
e 512 573
e 512 574
e 512 575
e 512 576
e 512 577
e 512 578
e 512 579
e 512 580
e 512 581
e 512 582
e 512 583
e 512 584
e 585 586
e 585 587
e 585 588
e 585 589
e 585 590
e 585 591
e 585 592
e 585 593
e 585 594
e 585 595
e 585 596
e 585 597
e 585 598
e 585 599
e 585 600
e 585 601
e 585 602
e 585 603
e 585 604
e 585 605
e 585 606
e 585 607
e 585 608
e 585 609
e 585 610
e 585 611
e 585 612
e 585 613
e 585 614
e 585 615
e 585 616
e 585 617
e 585 618
e 585 619
e 585 620
e 585 621
e 585 622
e 585 623
e 585 624
e 585 625
e 585 626
e 585 627
e 585 628
e 585 629
e 585 630
e 585 631
e 585 632
e 585 633
e 585 634
e 585 635
e 585 636
e 585 637
e 585 638
e 585 639
e 585 640
e 585 641
e 585 642
e 585 643
e 585 644
e 585 645
e 585 646
e 585 647
e 585 648
e 585 649
e 585 650
e 585 651
e 585 652
e 585 653
e 585 654
e 585 655
e 585 656
e 585 657
e 585 658
e 585 659
e 585 660
e 661 662
e 661 663
e 661 664
e 661 665
e 661 666
e 661 667
e 661 668
e 661 669
e 661 670
e 661 671
e 661 672
e 661 673
e 661 674
e 661 675
e 661 676
e 661 677
e 661 678
e 661 679
e 661 680
e 661 681
e 661 682
e 661 683
e 661 684
e 661 685
e 661 686
e 661 687
e 661 688
e 661 689
e 661 690
e 661 691
e 661 692
e 661 693
e 661 694
e 661 695
e 661 696
e 661 697
e 661 698
e 661 699
e 700 701
e 700 702
e 700 703
e 700 704
e 700 705
e 700 706
e 700 707
e 700 708
e 700 709
e 700 710
e 700 711
e 700 712
e 700 713
e 700 714
e 700 715
e 700 716
e 700 717
e 700 718
e 700 719
e 700 720
e 700 721
e 700 722
e 700 723
e 700 724
e 700 725
e 700 726
e 700 727
e 700 728
e 700 729
e 700 730
e 700 731
e 700 732
e 700 733
e 734 735
e 734 736
e 734 737
e 734 738
e 734 739
e 734 740
e 734 741
e 734 742
e 734 743
e 734 744
e 734 745
e 734 746
e 734 747
e 734 748
e 734 749
e 734 750
e 734 751
e 734 752
e 753 754
e 753 755
e 753 756
e 753 757
e 753 758
e 753 759
e 753 760
e 753 761
e 753 762
e 753 763
e 753 764
e 765 766
e 765 767
e 765 768
e 765 769
e 765 770
e 765 771
e 765 772
e 765 773
e 765 774
e 765 775
e 765 776
e 765 777
e 765 778
e 765 779
e 765 780
e 765 781
e 765 782
e 765 783
e 765 784
e 765 785
e 765 786
e 765 787
e 765 788
e 765 789
e 765 790
e 765 791
e 765 792
e 765 793
e 765 794
e 765 795
e 765 796
e 765 797
e 765 798
e 765 799
e 765 800
e 765 801
e 765 802
e 765 803
e 765 804
e 765 805
e 765 806
e 765 807
e 765 808
e 765 809
e 765 810
e 765 811
e 765 812
e 765 813
e 765 814
e 765 815
e 765 816
e 765 817
e 765 818
e 765 819
e 765 820
e 765 821
e 765 822
e 765 823
e 765 824
e 765 825
e 765 826
e 765 827
e 765 828
e 765 829
e 765 830
e 765 831
e 765 832
e 765 833
e 765 834
e 765 835
e 765 836
e 765 837
e 765 838
e 765 839
e 765 840
e 765 841
e 765 842
e 765 843
e 765 844
e 765 845
e 846 847
e 846 848
e 846 849
e 846 850
e 846 851
e 846 852
e 846 853
e 846 854
e 846 855
e 846 856
e 846 857
e 846 858
e 846 859
e 846 860
e 846 861
e 846 862
e 846 863
e 846 864
e 846 865
e 846 866
e 846 867
e 868 869
e 868 870
e 868 871
e 868 872
e 868 873
e 868 874
e 868 875
e 868 876
e 868 877
e 868 878
e 868 879
e 868 880
e 868 881
e 868 882
e 868 883
e 868 884
e 868 885
e 868 886
e 868 887
e 868 888
e 868 889
e 868 890
e 868 891
e 868 892
e 868 893
e 868 894
e 868 895
e 868 896
e 868 897
e 868 898
e 868 899
e 868 900
e 868 901
e 868 902
e 868 903
e 868 904
e 868 905
e 868 906
e 868 907
e 868 908
e 868 909
e 868 910
e 868 911
e 868 912
e 868 913
e 868 914
e 868 915
e 868 916
e 868 917
e 868 918
e 868 919
e 868 920
e 868 921
e 868 922
e 868 923
e 868 924
e 868 925
e 868 926
e 868 927
e 868 928
e 868 929
e 868 930
e 868 931
e 868 932
e 868 933
e 868 934
e 868 935
e 868 936
e 868 937
e 868 938
e 868 939
e 868 940
e 868 941
e 942 943
e 942 944
e 942 945
e 942 946
e 942 947
e 942 948
e 942 949
e 942 950
e 942 951
e 942 952
e 942 953
e 942 954
e 942 955
e 942 956
e 942 957
e 942 958
e 942 959
e 942 960
e 942 961
e 942 962
e 942 963
e 942 964
e 942 965
e 942 966
e 942 967
e 942 968
e 942 969
e 942 970
e 942 971
e 972 973
e 972 974
e 972 975
e 972 976
e 972 977
e 972 978
e 972 979
e 972 980
e 972 981
e 972 982
e 972 983
e 972 984
e 972 985
e 972 986
e 972 987
e 972 988
e 972 989
e 972 990
e 972 991
e 972 992
e 972 993
e 972 994
e 972 995
e 972 996
e 972 997
e 998 999
e 998 1000
e 998 1001
e 998 1002
e 998 1003
e 998 1004
e 998 1005
e 998 1006
e 998 1007
e 998 1008
e 998 1009
e 998 1010
e 998 1011
e 998 1012
e 998 1013
e 998 1014
e 998 1015
e 998 1016
e 998 1017
e 998 1018
e 998 1019
e 998 1020
e 998 1021
e 998 1022
e 998 1023
e 998 1024
e 998 1025
e 998 1026
e 998 1027
e 998 1028
e 998 1029
e 998 1030
e 998 1031
e 998 1032
e 998 1033
e 998 1034
e 998 1035
e 998 1036
e 998 1037
e 998 1038
e 998 1039
e 998 1040
e 998 1041
e 998 1042
e 998 1043
e 998 1044
e 1045 1046
e 1045 1047
e 1045 1048
e 1045 1049
e 1045 1050
e 1045 1051
e 1045 1052
e 1045 1053
e 1045 1054
e 1045 1055
e 1045 1056
e 1045 1057
e 1045 1058
e 1045 1059
e 1060 1061
e 1060 1062
e 1060 1063
e 1060 1064
e 1060 1065
e 1060 1066
e 1060 1067
e 1060 1068
e 1060 1069
e 1060 1070
e 1060 1071
e 1060 1072
e 1060 1073
e 1060 1074
e 1060 1075
e 1060 1076
e 1060 1077
e 1060 1078
e 1060 1079
e 1060 1080
e 1060 1081
e 1060 1082
e 1060 1083
e 1060 1084
e 1060 1085
e 1060 1086
e 1060 1087
e 1060 1088
e 1060 1089
e 1060 1090
e 1060 1091
e 1060 1092
e 1060 1093
e 1060 1094
e 1060 1095
e 1060 1096
e 1060 1097
e 1060 1098
e 1060 1099
e 1060 1100
e 1060 1101
e 1060 1102
e 1060 1103
e 1060 1104
e 1060 1105
e 1060 1106
e 1060 1107
e 1060 1108
e 1060 1109
e 1060 1110
e 1060 1111
e 1060 1112
e 1060 1113
e 1060 1114
e 1060 1115
e 1060 1116
e 1060 1117
e 1060 1118
e 1060 1119
e 1060 1120
e 1060 1121
e 1060 1122
e 1060 1123
e 1060 1124
e 1060 1125
e 1060 1126
e 1060 1127
e 1060 1128
e 1060 1129
e 1060 1130
e 1060 1131
e 1060 1132
e 1060 1133
e 1060 1134
e 1060 1135
e 1060 1136
e 1060 1137
e 1060 1138
e 1139 1140
e 1139 1141
e 1139 1142
e 1139 1143
e 1139 1144
e 1139 1145
e 1139 1146
e 1139 1147
e 1139 1148
e 1139 1149
e 1139 1150
e 1139 1151
e 1139 1152
e 1139 1153
e 1139 1154
e 1139 1155
e 1139 1156
e 1139 1157
e 1139 1158
e 1139 1159
e 1139 1160
e 1139 1161
e 1139 1162
e 1139 1163
e 1139 1164
e 1139 1165
e 1139 1166
e 1139 1167
e 1139 1168
e 1139 1169
e 1139 1170
e 1139 1171
e 1139 1172
e 1139 1173
e 1139 1174
e 1139 1175
e 1139 1176
e 1139 1177
e 1139 1178
e 1139 1179
e 1139 1180
e 1139 1181
e 1139 1182
e 1139 1183
e 1139 1184
e 1139 1185
e 1139 1186
e 1139 1187
e 1139 1188
e 1139 1189
e 1139 1190
e 1191 1192
e 1191 1193
e 1191 1194
e 1191 1195
e 1191 1196
e 1191 1197
e 1191 1198
e 1191 1199
e 1191 1200
e 1191 1201
e 1191 1202
e 1191 1203
e 1191 1204
e 1191 1205
e 1191 1206
e 1191 1207
e 1191 1208
e 1191 1209
e 1191 1210
e 1191 1211
e 1191 1212
e 1191 1213
e 1191 1214
e 1191 1215
e 1191 1216
e 1191 1217
e 1191 1218
e 1191 1219
e 1191 1220
e 1191 1221
e 1191 1222
e 1191 1223
e 1191 1224
e 1191 1225
e 1191 1226
e 1191 1227
e 1191 1228
e 1191 1229
e 1191 1230
e 1191 1231
e 1191 1232
e 1191 1233
e 1191 1234
e 1191 1235
e 1191 1236
e 1191 1237
e 1191 1238
e 1191 1239
e 1191 1240
e 1191 1241
e 1191 1242
e 1191 1243
e 1191 1244
e 1191 1245
e 1191 1246
e 1191 1247
e 1191 1248
e 1191 1249
e 1191 1250
e 1191 1251
e 1191 1252
e 1191 1253
e 1191 1254
e 1191 1255
e 1191 1256
e 1191 1257
e 1191 1258
e 1191 1259
e 1191 1260
e 1261 1262
e 1261 1263
e 1261 1264
e 1261 1265
e 1261 1266
e 1261 1267
e 1261 1268
e 1261 1269
e 1261 1270
e 1261 1271
e 1261 1272
e 1261 1273
e 1261 1274
e 1261 1275
e 1261 1276
e 1261 1277
e 1261 1278
e 1261 1279
e 1261 1280
e 1261 1281
e 1261 1282
e 1261 1283
e 1261 1284
e 1261 1285
e 1261 1286
e 1261 1287
e 1261 1288
e 1261 1289
e 1261 1290
e 1261 1291
e 1261 1292
e 1261 1293
e 1261 1294
e 1261 1295
e 1261 1296
e 1261 1297
e 1261 1298
e 1261 1299
e 1261 1300
e 1261 1301
e 1261 1302
e 1261 1303
e 1261 1304
e 1261 1305
e 1261 1306
e 1261 1307
e 1261 1308
e 1261 1309
e 1261 1310
e 1261 1311
e 1261 1312
e 1261 1313
e 1261 1314
e 1261 1315
e 1261 1316
e 1261 1317
e 1261 1318
e 1319 1320
e 1319 1321
e 1319 1322
e 1319 1323
e 1319 1324
e 1319 1325
e 1319 1326
e 1319 1327
e 1319 1328
e 1319 1329
e 1319 1330
e 1319 1331
e 1319 1332
e 1319 1333
e 1319 1334
e 1319 1335
e 1319 1336
e 1319 1337
e 1319 1338
e 1319 1339
e 1319 1340
e 1319 1341
e 1319 1342
e 1319 1343
e 1319 1344
e 1319 1345
e 1319 1346
e 1319 1347
e 1319 1348
e 1319 1349
e 1319 1350
e 1319 1351
e 1319 1352
e 1319 1353
e 1319 1354
e 1319 1355
e 1319 1356
e 1319 1357
e 1319 1358
e 1319 1359
e 1319 1360
e 1319 1361
e 1319 1362
e 1319 1363
e 1319 1364
e 1319 1365
e 1319 1366
e 1319 1367
e 1319 1368
e 1319 1369
e 1319 1370
e 1319 1371
e 1319 1372
e 1319 1373
e 1319 1374
e 1319 1375
e 1319 1376
e 1319 1377
e 1319 1378
e 1319 1379
e 1380 1381
e 1380 1382
e 1380 1383
e 1380 1384
e 1380 1385
e 1380 1386
e 1380 1387
e 1380 1388
e 1380 1389
e 1380 1390
e 1380 1391
e 1380 1392
e 1380 1393
e 1380 1394
e 1380 1395
e 1380 1396
e 1380 1397
e 1380 1398
e 1380 1399
e 1380 1400
e 1380 1401
e 1380 1402
e 1380 1403
e 1380 1404
e 1380 1405
e 1380 1406
e 1380 1407
e 1380 1408
e 1380 1409
e 1410 1411
e 1410 1412
e 1410 1413
e 1410 1414
e 1410 1415
e 1410 1416
e 1410 1417
e 1410 1418
e 1410 1419
e 1410 1420
e 1410 1421
e 1410 1422
e 1410 1423
e 1410 1424
e 1410 1425
e 1410 1426
e 1410 1427
e 1410 1428
e 1410 1429
e 1410 1430
e 1410 1431
e 1410 1432
e 1410 1433
e 1410 1434
e 1410 1435
e 1410 1436
e 1410 1437
e 1410 1438
e 1410 1439
e 1410 1440
e 1410 1441
e 1410 1442
e 1410 1443
e 1410 1444
e 1410 1445
e 1410 1446
e 1410 1447
e 1410 1448
e 1410 1449
e 1410 1450
e 1410 1451
e 1410 1452
e 1410 1453
e 1410 1454
e 1410 1455
e 1410 1456
e 1410 1457
e 1410 1458
e 1410 1459
e 1410 1460
e 1410 1461
e 1410 1462
e 1410 1463
e 1410 1464
e 1410 1465
e 1410 1466
e 1410 1467
e 1410 1468
e 1410 1469
e 1410 1470
e 1410 1471
e 1410 1472
e 1410 1473
e 1410 1474
e 1410 1475
e 1410 1476
e 1410 1477
e 1410 1478
e 1410 1479
e 1410 1480
e 1481 1482
e 1481 1483
e 1481 1484
e 1481 1485
e 1481 1486
e 1481 1487
e 1481 1488
e 1481 1489
e 1481 1490
e 1481 1491
e 1481 1492
e 1481 1493
e 1494 1495
e 1494 1496
e 1494 1497
e 1494 1498
e 1494 1499
e 1494 1500
e 1494 1501
e 1494 1502
e 1494 1503
e 1494 1504
e 1494 1505
e 1494 1506
e 1494 1507
e 1508 1509
e 1508 1510
e 1508 1511
e 1508 1512
e 1508 1513
e 1508 1514
e 1508 1515
e 1508 1516
e 1508 1517
e 1508 1518
e 1508 1519
e 1508 1520
e 1508 1521
e 1508 1522
e 1508 1523
e 1508 1524
e 1508 1525
e 1508 1526
e 1508 1527
e 1508 1528
e 1508 1529
e 1508 1530
e 1508 1531
e 1508 1532
e 1508 1533
e 1508 1534
e 1508 1535
e 1508 1536
e 1508 1537
e 1508 1538
e 1508 1539
e 1508 1540
e 1508 1541
e 1508 1542
e 1508 1543
e 1508 1544
e 1508 1545
e 1508 1546
e 1508 1547
e 1508 1548
e 1508 1549
e 1508 1550
e 1508 1551
e 1508 1552
e 1508 1553
e 1508 1554
e 1508 1555
e 1508 1556
e 1508 1557
e 1508 1558
e 1508 1559
e 1508 1560
e 1508 1561
e 1508 1562
e 1508 1563
e 1508 1564
e 1508 1565
e 1508 1566
e 1508 1567
e 1508 1568
e 1508 1569
e 1508 1570
e 1508 1571
